p cnf 221 747
c p weight -87 1 0
c p weight 87 -1 0
c p weight 91 6.12323399573676603586882014729198302312846062338790031898128063403419218957424163818359375E-17 0
c p weight -91 1 0
c p weight 92 1 0
c p weight -92 1 0
c p weight -89 1 0
c p weight 89 -1 0
c p weight -93 1 0
c p weight 93 -1 0
c p weight -95 1 0
c p weight 95 -1 0
c p weight -98 1 0
c p weight 98 -1 0
c p weight -101 1 0
c p weight 101 -1 0
c p weight -104 1 0
c p weight 104 -1 0
c p weight -107 1 0
c p weight 107 -1 0
c p weight -110 1 0
c p weight 110 -1 0
c p weight -113 1 0
c p weight 113 -1 0
c p weight -116 1 0
c p weight 116 -1 0
c p weight -119 1 0
c p weight 119 -1 0
c p weight -122 1 0
c p weight 122 -1 0
c p weight -125 1 0
c p weight 125 -1 0
c p weight -128 1 0
c p weight 128 -1 0
c p weight -131 1 0
c p weight 131 -1 0
c p weight -134 1 0
c p weight 134 -1 0
c p weight -137 1 0
c p weight 137 -1 0
c p weight -140 1 0
c p weight 140 -1 0
c p weight -143 1 0
c p weight 143 -1 0
c p weight -146 1 0
c p weight 146 -1 0
c p weight -149 1 0
c p weight 149 -1 0
c p weight -152 1 0
c p weight 152 -1 0
c p weight -155 1 0
c p weight 155 -1 0
c p weight -158 1 0
c p weight 158 -1 0
c p weight -161 1 0
c p weight 161 -1 0
c p weight -164 1 0
c p weight 164 -1 0
c p weight -167 1 0
c p weight 167 -1 0
c p weight -170 1 0
c p weight 170 -1 0
c p weight -173 1 0
c p weight 173 -1 0
c p weight -176 1 0
c p weight 176 -1 0
c p weight -179 1 0
c p weight 179 -1 0
c p weight -182 1 0
c p weight 182 -1 0
c p weight -185 1 0
c p weight 185 -1 0
c p weight -188 1 0
c p weight 188 -1 0
c p weight -191 1 0
c p weight 191 -1 0
c p weight -194 1 0
c p weight 194 -1 0
c p weight -197 1 0
c p weight 197 -1 0
c p weight -200 1 0
c p weight 200 -1 0
c p weight -203 1 0
c p weight 203 -1 0
c p weight -206 1 0
c p weight 206 -1 0
c p weight -209 1 0
c p weight 209 -1 0
c p weight -212 1 0
c p weight 212 -1 0
c p weight -215 1 0
c p weight 215 -1 0
c p weight -218 1 0
c p weight 218 -1 0
c p weight 221 0.5 0
c p weight -221 1 0
221 0
-85 0
-83 0
-81 0
-79 0
-77 0
-75 0
-73 0
-71 0
-69 0
-67 0
-65 0
-63 0
-61 0
-59 0
-57 0
-55 0
-53 0
-51 0
-49 0
-47 0
-45 0
-43 0
-41 0
-39 0
-37 0
-35 0
-33 0
-31 0
-29 0
-27 0
-25 0
-23 0
-21 0
-19 0
-17 0
-15 0
-13 0
-11 0
-9 0
-7 0
-5 0
-3 0
-1 0
-87 85 0
-87 86 0
87 -85 -86 0
88 85 -86 0
88 -85 86 0
-88 85 86 0
-88 -85 -86 0
-89 90 0
-89 88 0
-89 -85 0
89 -90 85 -88 0
90 -85 88 0
-90 85 88 0
-91 88 0
90 -91 -85 0
-90 -91 85 0
90 91 85 -88 0
-90 91 -85 -88 0
-92 88 0
90 -92 85 0
-90 -92 -85 0
90 92 -85 -88 0
-90 92 85 -88 0
-93 90 0
-93 88 0
93 -90 -88 0
94 90 -88 0
94 -90 88 0
-94 90 88 0
-94 -90 -88 0
-95 90 0
-95 84 0
-95 83 -94 0
-95 -83 94 0
95 -90 83 94 -84 0
95 -90 -83 -94 -84 0
97 90 -83 0
97 -90 83 0
-97 90 83 0
-97 -90 -83 0
96 94 -84 0
96 -94 84 0
-96 94 84 0
-96 -94 -84 0
-98 97 0
-98 82 0
-98 81 -84 0
-98 -81 84 0
98 -97 81 84 -82 0
98 -97 -81 -84 -82 0
100 97 -81 0
100 -97 81 0
-100 97 81 0
-100 -97 -81 0
99 84 -82 0
99 -84 82 0
-99 84 82 0
-99 -84 -82 0
-101 100 0
-101 80 0
-101 79 -82 0
-101 -79 82 0
101 -100 79 82 -80 0
101 -100 -79 -82 -80 0
103 100 -79 0
103 -100 79 0
-103 100 79 0
-103 -100 -79 0
102 82 -80 0
102 -82 80 0
-102 82 80 0
-102 -82 -80 0
-104 103 0
-104 78 0
-104 77 -80 0
-104 -77 80 0
104 -103 77 80 -78 0
104 -103 -77 -80 -78 0
106 103 -77 0
106 -103 77 0
-106 103 77 0
-106 -103 -77 0
105 80 -78 0
105 -80 78 0
-105 80 78 0
-105 -80 -78 0
-107 106 0
-107 76 0
-107 75 -78 0
-107 -75 78 0
107 -106 75 78 -76 0
107 -106 -75 -78 -76 0
109 106 -75 0
109 -106 75 0
-109 106 75 0
-109 -106 -75 0
108 78 -76 0
108 -78 76 0
-108 78 76 0
-108 -78 -76 0
-110 109 0
-110 74 0
-110 73 -76 0
-110 -73 76 0
110 -109 73 76 -74 0
110 -109 -73 -76 -74 0
112 109 -73 0
112 -109 73 0
-112 109 73 0
-112 -109 -73 0
111 76 -74 0
111 -76 74 0
-111 76 74 0
-111 -76 -74 0
-113 112 0
-113 72 0
-113 71 -74 0
-113 -71 74 0
113 -112 71 74 -72 0
113 -112 -71 -74 -72 0
115 112 -71 0
115 -112 71 0
-115 112 71 0
-115 -112 -71 0
114 74 -72 0
114 -74 72 0
-114 74 72 0
-114 -74 -72 0
-116 115 0
-116 70 0
-116 69 -72 0
-116 -69 72 0
116 -115 69 72 -70 0
116 -115 -69 -72 -70 0
118 115 -69 0
118 -115 69 0
-118 115 69 0
-118 -115 -69 0
117 72 -70 0
117 -72 70 0
-117 72 70 0
-117 -72 -70 0
-119 118 0
-119 68 0
-119 67 -70 0
-119 -67 70 0
119 -118 67 70 -68 0
119 -118 -67 -70 -68 0
121 118 -67 0
121 -118 67 0
-121 118 67 0
-121 -118 -67 0
120 70 -68 0
120 -70 68 0
-120 70 68 0
-120 -70 -68 0
-122 121 0
-122 66 0
-122 65 -68 0
-122 -65 68 0
122 -121 65 68 -66 0
122 -121 -65 -68 -66 0
124 121 -65 0
124 -121 65 0
-124 121 65 0
-124 -121 -65 0
123 68 -66 0
123 -68 66 0
-123 68 66 0
-123 -68 -66 0
-125 124 0
-125 64 0
-125 63 -66 0
-125 -63 66 0
125 -124 63 66 -64 0
125 -124 -63 -66 -64 0
127 124 -63 0
127 -124 63 0
-127 124 63 0
-127 -124 -63 0
126 66 -64 0
126 -66 64 0
-126 66 64 0
-126 -66 -64 0
-128 127 0
-128 62 0
-128 61 -64 0
-128 -61 64 0
128 -127 61 64 -62 0
128 -127 -61 -64 -62 0
130 127 -61 0
130 -127 61 0
-130 127 61 0
-130 -127 -61 0
129 64 -62 0
129 -64 62 0
-129 64 62 0
-129 -64 -62 0
-131 130 0
-131 60 0
-131 59 -62 0
-131 -59 62 0
131 -130 59 62 -60 0
131 -130 -59 -62 -60 0
133 130 -59 0
133 -130 59 0
-133 130 59 0
-133 -130 -59 0
132 62 -60 0
132 -62 60 0
-132 62 60 0
-132 -62 -60 0
-134 133 0
-134 58 0
-134 57 -60 0
-134 -57 60 0
134 -133 57 60 -58 0
134 -133 -57 -60 -58 0
136 133 -57 0
136 -133 57 0
-136 133 57 0
-136 -133 -57 0
135 60 -58 0
135 -60 58 0
-135 60 58 0
-135 -60 -58 0
-137 136 0
-137 56 0
-137 55 -58 0
-137 -55 58 0
137 -136 55 58 -56 0
137 -136 -55 -58 -56 0
139 136 -55 0
139 -136 55 0
-139 136 55 0
-139 -136 -55 0
138 58 -56 0
138 -58 56 0
-138 58 56 0
-138 -58 -56 0
-140 139 0
-140 54 0
-140 53 -56 0
-140 -53 56 0
140 -139 53 56 -54 0
140 -139 -53 -56 -54 0
142 139 -53 0
142 -139 53 0
-142 139 53 0
-142 -139 -53 0
141 56 -54 0
141 -56 54 0
-141 56 54 0
-141 -56 -54 0
-143 142 0
-143 52 0
-143 51 -54 0
-143 -51 54 0
143 -142 51 54 -52 0
143 -142 -51 -54 -52 0
145 142 -51 0
145 -142 51 0
-145 142 51 0
-145 -142 -51 0
144 54 -52 0
144 -54 52 0
-144 54 52 0
-144 -54 -52 0
-146 145 0
-146 50 0
-146 49 -52 0
-146 -49 52 0
146 -145 49 52 -50 0
146 -145 -49 -52 -50 0
148 145 -49 0
148 -145 49 0
-148 145 49 0
-148 -145 -49 0
147 52 -50 0
147 -52 50 0
-147 52 50 0
-147 -52 -50 0
-149 148 0
-149 48 0
-149 47 -50 0
-149 -47 50 0
149 -148 47 50 -48 0
149 -148 -47 -50 -48 0
151 148 -47 0
151 -148 47 0
-151 148 47 0
-151 -148 -47 0
150 50 -48 0
150 -50 48 0
-150 50 48 0
-150 -50 -48 0
-152 151 0
-152 46 0
-152 45 -48 0
-152 -45 48 0
152 -151 45 48 -46 0
152 -151 -45 -48 -46 0
154 151 -45 0
154 -151 45 0
-154 151 45 0
-154 -151 -45 0
153 48 -46 0
153 -48 46 0
-153 48 46 0
-153 -48 -46 0
-155 154 0
-155 44 0
-155 43 -46 0
-155 -43 46 0
155 -154 43 46 -44 0
155 -154 -43 -46 -44 0
157 154 -43 0
157 -154 43 0
-157 154 43 0
-157 -154 -43 0
156 46 -44 0
156 -46 44 0
-156 46 44 0
-156 -46 -44 0
-158 157 0
-158 42 0
-158 41 -44 0
-158 -41 44 0
158 -157 41 44 -42 0
158 -157 -41 -44 -42 0
160 157 -41 0
160 -157 41 0
-160 157 41 0
-160 -157 -41 0
159 44 -42 0
159 -44 42 0
-159 44 42 0
-159 -44 -42 0
-161 160 0
-161 40 0
-161 39 -42 0
-161 -39 42 0
161 -160 39 42 -40 0
161 -160 -39 -42 -40 0
163 160 -39 0
163 -160 39 0
-163 160 39 0
-163 -160 -39 0
162 42 -40 0
162 -42 40 0
-162 42 40 0
-162 -42 -40 0
-164 163 0
-164 38 0
-164 37 -40 0
-164 -37 40 0
164 -163 37 40 -38 0
164 -163 -37 -40 -38 0
166 163 -37 0
166 -163 37 0
-166 163 37 0
-166 -163 -37 0
165 40 -38 0
165 -40 38 0
-165 40 38 0
-165 -40 -38 0
-167 166 0
-167 36 0
-167 35 -38 0
-167 -35 38 0
167 -166 35 38 -36 0
167 -166 -35 -38 -36 0
169 166 -35 0
169 -166 35 0
-169 166 35 0
-169 -166 -35 0
168 38 -36 0
168 -38 36 0
-168 38 36 0
-168 -38 -36 0
-170 169 0
-170 34 0
-170 33 -36 0
-170 -33 36 0
170 -169 33 36 -34 0
170 -169 -33 -36 -34 0
172 169 -33 0
172 -169 33 0
-172 169 33 0
-172 -169 -33 0
171 36 -34 0
171 -36 34 0
-171 36 34 0
-171 -36 -34 0
-173 172 0
-173 32 0
-173 31 -34 0
-173 -31 34 0
173 -172 31 34 -32 0
173 -172 -31 -34 -32 0
175 172 -31 0
175 -172 31 0
-175 172 31 0
-175 -172 -31 0
174 34 -32 0
174 -34 32 0
-174 34 32 0
-174 -34 -32 0
-176 175 0
-176 30 0
-176 29 -32 0
-176 -29 32 0
176 -175 29 32 -30 0
176 -175 -29 -32 -30 0
178 175 -29 0
178 -175 29 0
-178 175 29 0
-178 -175 -29 0
177 32 -30 0
177 -32 30 0
-177 32 30 0
-177 -32 -30 0
-179 178 0
-179 28 0
-179 27 -30 0
-179 -27 30 0
179 -178 27 30 -28 0
179 -178 -27 -30 -28 0
181 178 -27 0
181 -178 27 0
-181 178 27 0
-181 -178 -27 0
180 30 -28 0
180 -30 28 0
-180 30 28 0
-180 -30 -28 0
-182 181 0
-182 26 0
-182 25 -28 0
-182 -25 28 0
182 -181 25 28 -26 0
182 -181 -25 -28 -26 0
184 181 -25 0
184 -181 25 0
-184 181 25 0
-184 -181 -25 0
183 28 -26 0
183 -28 26 0
-183 28 26 0
-183 -28 -26 0
-185 184 0
-185 24 0
-185 23 -26 0
-185 -23 26 0
185 -184 23 26 -24 0
185 -184 -23 -26 -24 0
187 184 -23 0
187 -184 23 0
-187 184 23 0
-187 -184 -23 0
186 26 -24 0
186 -26 24 0
-186 26 24 0
-186 -26 -24 0
-188 187 0
-188 22 0
-188 21 -24 0
-188 -21 24 0
188 -187 21 24 -22 0
188 -187 -21 -24 -22 0
190 187 -21 0
190 -187 21 0
-190 187 21 0
-190 -187 -21 0
189 24 -22 0
189 -24 22 0
-189 24 22 0
-189 -24 -22 0
-191 190 0
-191 20 0
-191 19 -22 0
-191 -19 22 0
191 -190 19 22 -20 0
191 -190 -19 -22 -20 0
193 190 -19 0
193 -190 19 0
-193 190 19 0
-193 -190 -19 0
192 22 -20 0
192 -22 20 0
-192 22 20 0
-192 -22 -20 0
-194 193 0
-194 18 0
-194 17 -20 0
-194 -17 20 0
194 -193 17 20 -18 0
194 -193 -17 -20 -18 0
196 193 -17 0
196 -193 17 0
-196 193 17 0
-196 -193 -17 0
195 20 -18 0
195 -20 18 0
-195 20 18 0
-195 -20 -18 0
-197 196 0
-197 16 0
-197 15 -18 0
-197 -15 18 0
197 -196 15 18 -16 0
197 -196 -15 -18 -16 0
199 196 -15 0
199 -196 15 0
-199 196 15 0
-199 -196 -15 0
198 18 -16 0
198 -18 16 0
-198 18 16 0
-198 -18 -16 0
-200 199 0
-200 14 0
-200 13 -16 0
-200 -13 16 0
200 -199 13 16 -14 0
200 -199 -13 -16 -14 0
202 199 -13 0
202 -199 13 0
-202 199 13 0
-202 -199 -13 0
201 16 -14 0
201 -16 14 0
-201 16 14 0
-201 -16 -14 0
-203 202 0
-203 12 0
-203 11 -14 0
-203 -11 14 0
203 -202 11 14 -12 0
203 -202 -11 -14 -12 0
205 202 -11 0
205 -202 11 0
-205 202 11 0
-205 -202 -11 0
204 14 -12 0
204 -14 12 0
-204 14 12 0
-204 -14 -12 0
-206 205 0
-206 10 0
-206 9 -12 0
-206 -9 12 0
206 -205 9 12 -10 0
206 -205 -9 -12 -10 0
208 205 -9 0
208 -205 9 0
-208 205 9 0
-208 -205 -9 0
207 12 -10 0
207 -12 10 0
-207 12 10 0
-207 -12 -10 0
-209 208 0
-209 8 0
-209 7 -10 0
-209 -7 10 0
209 -208 7 10 -8 0
209 -208 -7 -10 -8 0
211 208 -7 0
211 -208 7 0
-211 208 7 0
-211 -208 -7 0
210 10 -8 0
210 -10 8 0
-210 10 8 0
-210 -10 -8 0
-212 211 0
-212 6 0
-212 5 -8 0
-212 -5 8 0
212 -211 5 8 -6 0
212 -211 -5 -8 -6 0
214 211 -5 0
214 -211 5 0
-214 211 5 0
-214 -211 -5 0
213 8 -6 0
213 -8 6 0
-213 8 6 0
-213 -8 -6 0
-215 214 0
-215 4 0
-215 3 -6 0
-215 -3 6 0
215 -214 3 6 -4 0
215 -214 -3 -6 -4 0
217 214 -3 0
217 -214 3 0
-217 214 3 0
-217 -214 -3 0
216 6 -4 0
216 -6 4 0
-216 6 4 0
-216 -6 -4 0
-218 217 0
-218 2 0
-218 1 -4 0
-218 -1 4 0
218 -217 1 4 -2 0
218 -217 -1 -4 -2 0
220 217 -1 0
220 -217 1 0
-220 217 1 0
-220 -217 -1 0
219 4 -2 0
219 -4 2 0
-219 4 2 0
-219 -4 -2 0
-220 0
-217 0
-219 0
-214 0
-216 0
-211 0
-213 0
-208 0
-210 0
-205 0
-207 0
-202 0
-204 0
-199 0
-201 0
-196 0
-198 0
-193 0
-195 0
-190 0
-192 0
-187 0
-189 0
-184 0
-186 0
-181 0
-183 0
-178 0
-180 0
-175 0
-177 0
-172 0
-174 0
-169 0
-171 0
-166 0
-168 0
-163 0
-165 0
-160 0
-162 0
-157 0
-159 0
-154 0
-156 0
-151 0
-153 0
-148 0
-150 0
-145 0
-147 0
-142 0
-144 0
-139 0
-141 0
-136 0
-138 0
-133 0
-135 0
-130 0
-132 0
-127 0
-129 0
-124 0
-126 0
-121 0
-123 0
-118 0
-120 0
-115 0
-117 0
-112 0
-114 0
-109 0
-111 0
-106 0
-108 0
-103 0
-105 0
-100 0
-102 0
-97 0
-99 0
-90 0
-96 0
